Unpaird action:  acl_stats_ACTION
Unpaird action:  drop_stats_ACTION
Unpaird action:  ingress_bd_stats_ACTION
********************************** Input DAG ***********************************
# of processors =  24
# of nodes =  141
# of edges =  847
# of matches =  0
# of actions =  0
Match unit size =  160
# of match units =  89.0
aggregate match_unit_limit =  96
# of action fields =  743
aggregate action_fields_limit =  768
match_proc_limit = 4
action_proc_limit = 4
Critical path:  ['ingress_port_mapping_TABLE', 'switch_config_params_TABLE', 'fabric_ingress_dst_lkp_TABLE', '_condition_13', 'outer_rmac_TABLE', '_condition_14', '_condition_15', 'outer_ipv6_multicast_TABLE', 'outer_ipv6_multicast_star_g_TABLE', 'tunnel_TABLE', 'tunnel_lookup_miss_TABLE', 'nat_twice_TABLE', 'nat_dst_TABLE', 'nat_src_TABLE', 'nat_flow_TABLE', 'fwd_result_TABLE', 'nexthop_TABLE', 'lag_group_TABLE', 'fabric_lag_TABLE']
Critical path length = 64 cycles
Required throughput: 1 packets / cycle 
Upper bound on throughput =  1.0336473755
****************************** Running ILP Solver ******************************
Optimize a model with 1654 rows, 27214 columns and 99128 nonzeros
Variable types: 0 continuous, 27214 integer (27072 binary)
Coefficient statistics:
  Matrix range     [1e+00, 2e+02]
  Objective range  [1e+00, 1e+00]
  Bounds range     [1e+00, 2e+02]
  RHS range        [1e+00, 3e+01]
Presolve removed 8 rows and 1717 columns
Presolve time: 0.25s
Presolved: 1646 rows, 25497 columns, 92771 nonzeros
Variable types: 0 continuous, 25497 integer (25355 binary)

Root relaxation: objective 1.767925e+01, 2053 iterations, 0.21 seconds

    Nodes    |    Current Node    |     Objective Bounds      |     Work
 Expl Unexpl |  Obj  Depth IntInf | Incumbent    BestBd   Gap | It/Node Time

     0     0   17.67925    0  361          -   17.67925      -     -    0s
     0     0   18.67925    0  328          -   18.67925      -     -    3s
     0     0   18.67925    0  291          -   18.67925      -     -    4s
     0     0   18.67925    0  473          -   18.67925      -     -    5s
     0     0   18.67925    0  470          -   18.67925      -     -    6s
     0     0   18.67925    0  505          -   18.67925      -     -    6s
     0     0   18.67925    0  545          -   18.67925      -     -    7s
     0     0   18.67925    0  337          -   18.67925      -     -    8s
     0     0   18.67925    0  422          -   18.67925      -     -    9s
     0     0   18.67925    0  346          -   18.67925      -     -   10s
     0     0   19.00000    0  192          -   19.00000      -     -   11s
     0     0   19.00000    0  178          -   19.00000      -     -   11s
     0     2   19.00000    0  178          -   19.00000      -     -   13s
    20    10   19.00000   12  190          -   19.00000      -   295   15s
   704   560   19.00000  556  227          -   19.00000      -  12.7   20s
   797   622  124.00000  262  157          -   19.00000      -  11.7   25s
   802   626   20.00000   10  492          -   20.00000      -  11.6   30s
   804   627  154.00000  591  540          -   20.15706      -  11.6   36s
   807   629   21.00000  173  511          -   21.00000      -  11.5   40s
   810   631  148.00000  610  599          -   21.04646      -  11.5   49s
   811   632  119.00000  421  614          -   21.06522      -  11.5   51s
   815   634  157.00000   50  561          -   22.00000      -  11.4   55s
   817   636  124.00000  262  303          -   22.00000      -  11.4   60s
   820   638  164.00000  564  184          -   22.00000      -  11.3   67s
   822   639   22.00000   10  288          -   22.00000      -  11.3   74s
   823   640  184.00000  111  279          -   22.00000      -  11.3   76s
   828   644   22.00000  161  265          -   22.00000      -   138   80s
   832   647   22.00000  156  154          -   22.00000      -   137   88s
   833   647  131.00000  232  355          -   22.00000      -   137   90s
   835   649  157.00000   50  416          -   22.00000      -   136   95s
   836   649   22.01516  235  643          -   22.01516      -   136  102s
   838   651  191.00000  180  669          -   22.01896      -   136  105s
   843   654  184.00000  111  577          -   23.00000      -   135  111s
   846   656   23.00000  500  605          -   23.00000      -   135  115s
   848   657   23.00000  161  630          -   23.00000      -   134  120s
   850   659  148.00000  610  625          -   23.00000      -   134  125s
   852   660   23.00000  156  118          -   23.00000      -   134  131s
   855   662  157.00000   50  247          -   23.00000      -   133  135s
H  855   628                     191.0000000   23.00000  88.0%   133  137s
H  855   596                      31.0000000   23.00000  25.8%   133  137s
   866   605   23.00000  500  450   31.00000   23.00000  25.8%   240  140s
   873   610   31.00000  232  247   31.00000   23.00000  25.8%   238  145s
   879   614   31.00000  413  212   31.00000   23.00000  25.8%   236  150s
   886   623   23.00000   34  158   31.00000   23.00000  25.8%   296  155s
   935   652   23.00000   40  226   31.00000   23.00000  25.8%   285  160s
  1144   767   23.00000   51  106   31.00000   23.00000  25.8%   247  165s
H 1213   673                      29.0000000   23.00000  20.7%   236  165s
H 1406   627                      27.0000000   23.00000  14.8%   208  166s
H 1453   456                      26.0000000   23.00000  11.5%   203  166s
H 1966   489                      25.0000000   23.00000  8.00%   158  168s
H 2223   131                      24.0000000   23.00000  4.17%   143  169s
  2353    97   23.00000   45  328   24.00000   23.00000  4.17%   137  170s
  2366   106   23.00000   60  217   24.00000   23.00000  4.17%   136  175s
  2375   112   23.00000   86  151   24.00000   23.00000  4.17%   136  180s
  2466   144   23.00000   61  119   24.00000   23.00000  4.17%   149  185s
* 3084    21              99      23.0000000   23.00000  0.00%   127  187s

Cutting planes:
  Gomory: 4
  Cover: 34
  Implied bound: 2
  Clique: 110
  MIR: 14
  Flow cover: 54
  GUB cover: 89
  Zero half: 5

Explored 3215 nodes (402155 simplex iterations) in 187.06 seconds
Thread count was 4 (of 4 available processors)

Solution count 8: 23 24 25 ... 191
Pool objective bound 23

Optimal solution found (tolerance 1.00e-04)
Best objective 2.300000000000e+01, best bound 2.300000000000e+01, gap 0.0000%
Number of pipeline stages: 24.000000 


*********************************** Schedule
*********************************** |               t=0                |               t=1                |               t=2                |               t=3                |
|    ingress_port_mapping_TABLE    |       int_terminate_TABLE        |            ipsg_TABLE            |         outer_rmac_TABLE         |
|          _condition_43           |          _condition_47           | validate_outer_ipv4_packet_TABLE |          _condition_51           |
|          _condition_46           |     port_vlan_mapping_TABLE      |       sflow_ingress_TABLE        |   sflow_ing_take_sample_TABLE    |
|  validate_outer_ethernet_TABLE   |          _condition_10           |   fabric_ingress_dst_lkp_TABLE   |       spanning_tree_TABLE        |
|         int_source_TABLE         |           _condition_7           |                                  |          _condition_21           |
|           _condition_4           |           _condition_2           |                                  |          _condition_13           |
|           _condition_8           |           _condition_1           |                                  |          _condition_12           |
|                                  |           _condition_0           |                                  |           _condition_3           |
|                                  |           _condition_9           |                                  |                                  |
|                                  |    switch_config_params_TABLE    |                                  |                                  |

|               t=4                |               t=5                |               t=6                |               t=7                |
|    ipsg_permit_special_TABLE     | native_packet_over_fabric_TABLE  |   int_sink_update_outer_TABLE    |       ipv6_dest_vtep_TABLE       |
|    outer_ipv6_multicast_TABLE    | validate_outer_ipv6_packet_TABLE |       ipv4_src_vtep_TABLE        |       ipv4_dest_vtep_TABLE       |
|       ipv6_src_vtep_TABLE        |    validate_mpls_packet_TABLE    |outer_ipv6_multicast_star_g_TABLE |outer_ipv4_multicast_star_g_TABLE |
|          _condition_20           |    outer_ipv4_multicast_TABLE    |            mpls_TABLE            |  ingress_port_properties_TABLE   |
|          _condition_17           |                                  |                                  |                                  |
|          _condition_16           |                                  |                                  |                                  |
|          _condition_15           |                                  |                                  |                                  |
|          _condition_14           |                                  |                                  |                                  |
|          _condition_18           |                                  |                                  |                                  |

|               t=8                |               t=9                |               t=10               |               t=11               |
|    ingress_qos_map_dscp_TABLE    |     tunnel_lookup_miss_TABLE     |            rmac_TABLE            |   ipv4_multicast_bridge_TABLE    |
|           tunnel_TABLE           |     adjust_lkp_fields_TABLE      |         nat_twice_TABLE          |    ipv6_multicast_route_TABLE    |
|          _condition_48           |   fabric_ingress_src_lkp_TABLE   |      validate_packet_TABLE       |    ipv4_multicast_route_TABLE    |
|          _condition_25           |       storm_control_TABLE        |    ingress_l4_dst_port_TABLE     |          _condition_31           |
|          _condition_22           |                                  |                                  |          _condition_34           |
|          _condition_23           |                                  |                                  |          _condition_36           |
|          _condition_11           |                                  |                                  |          _condition_33           |
|          _condition_19           |                                  |                                  |          _condition_32           |
|           _condition_6           |                                  |                                  |          _condition_26           |
|           _condition_5           |                                  |                                  |          _condition_27           |
|    ingress_qos_map_pcp_TABLE     |                                  |                                  |          _condition_28           |

|               t=12               |               t=13               |               t=14               |               t=15               |
|          mac_acl_TABLE           |          _condition_40           |         ipv4_racl_TABLE          |          ipv6_fib_TABLE          |
|ipv4_multicast_route_star_g_TABLE |          _condition_44           |          _condition_41           |          nat_dst_TABLE           |
|ipv4_multicast_bridge_star_g_TABLE|          _condition_45           |          _condition_35           |   ipv6_multicast_bridge_TABLE    |
|    ingress_l4_src_port_TABLE     |           ip_acl_TABLE           |          _condition_24           |         acl_stats_ACTION         |
|                                  |          _condition_37           |         ipv6_racl_TABLE          |                                  |
|                                  |          _condition_30           |         ipv6_urpf_TABLE          |                                  |
|                                  |          _condition_38           |                                  |                                  |
|                                  |          ipv6_acl_TABLE          |                                  |                                  |
|                                  |          _condition_29           |                                  |                                  |
|                                  |     ingress_bd_stats_ACTION      |                                  |                                  |
|                                  |          _condition_39           |                                  |                                  |

|               t=16               |               t=17               |               t=18               |               t=19               |
|        ipv6_fib_lpm_TABLE        |          nat_flow_TABLE          |    compute_ipv4_hashes_TABLE     |          _condition_54           |
|          nat_src_TABLE           |        ipv4_fib_lpm_TABLE        |    compute_ipv6_hashes_TABLE     |          _condition_53           |
|          ipv4_fib_TABLE          |            dmac_TABLE            |         fwd_result_TABLE         |          _condition_52           |
|ipv6_multicast_bridge_star_g_TABLE|ipv6_multicast_route_star_g_TABLE |   compute_non_ip_hashes_TABLE    |    compute_other_hashes_TABLE    |
|                                  |                                  |                                  |          _condition_49           |
|                                  |                                  |                                  |            smac_TABLE            |
|                                  |                                  |                                  |       traffic_class_TABLE        |

|               t=20               |               t=21               |               t=22               |               t=23               |
|         ipv4_urpf_TABLE          |       ipv4_urpf_lpm_TABLE        |         lag_group_TABLE          |         fabric_lag_TABLE         |
|        meter_index_TABLE         |         ecmp_group_TABLE         |          _condition_50           |        meter_action_TABLE        |
|        drop_stats_ACTION         |        learn_notify_TABLE        |          _condition_42           |    storm_control_stats_TABLE     |
|          nexthop_TABLE           |       ipv6_urpf_lpm_TABLE        |          urpf_bd_TABLE           |         system_acl_TABLE         |
|                                  |                                  |          bd_flood_TABLE          |                                  |




Match units usage (max = 4 units) on one processor
|t=0 |t=1 |t=2 |t=3 |t=4 |t=5 |t=6 |t=7 |t=8 |t=9 |t=10|t=11|t=12|t=13|t=14|t=15|
|3.0 |3.0 |4.0 |3.0 |4.0 |4.0 |4.0 |4.0 |3.0 |4.0 |4.0 |4.0 |4.0 |4.0 |4.0 |4.0 |

|t=16|t=17|t=18|t=19|t=20|t=21|t=22|t=23|
|4.0 |4.0 |4.0 |3.0 |3.0 |4.0 |3.0 |4.0 |


Action fields usage (max = 32 fields) on one processor
|t=0 |t=1 |t=2 |t=3 |t=4 |t=5 |t=6 |t=7 |t=8 |t=9 |t=10|t=11|t=12|t=13|t=14|t=15|
| 28 | 31 | 32 | 29 | 30 | 32 | 32 | 32 | 32 | 32 | 32 | 32 | 32 | 32 | 27 | 32 |

|t=16|t=17|t=18|t=19|t=20|t=21|t=22|t=23|
| 32 | 32 | 32 | 28 | 32 | 32 | 26 | 32 |


Match packets (max = 4 match packets) on one processor
empty dictionary
Action packets (max = 4 action packets) on one processor
empty dictionary
